mixintcount/benchmarks/random_v2l/3_3_6309.in
12 5
#	x1	x2	x3;		0 = Real; 1 = Integer
	1	1	1
1	10	-8	1	-4481
1	10	7	-8	3830
1	6	4	0	439
1	5	-2	-7	1097
1	7	4	10	-2373
1	4	2	8	4441
1	1	0	0	6309
1	-1	0	0	6309
1	0	1	0	6309
1	0	-1	0	6309
1	0	0	1	6309
1	0	0	-1	6309
